NAME : TSP_INST.7582062.tour
COMMENT : Length = 7582062
COMMENT : Found by LKH [Keld Helsgaun] Sat Oct 18 11:07:56 2025
TYPE : TOUR
DIMENSION : 100
TOUR_SECTION
1
45
12
94
17
28
55
52
3
98
47
14
76
85
22
43
87
19
91
6
40
42
56
82
30
88
2
66
29
96
16
35
39
84
75
69
23
46
13
20
10
99
57
65
41
24
86
8
68
48
34
81
33
83
67
18
36
80
60
72
73
64
79
58
5
71
44
77
11
89
74
50
54
51
4
9
70
38
53
21
32
25
37
26
7
78
95
15
90
93
63
61
59
31
92
27
62
100
49
97
-1
EOF
